1406
90 32 19 3 26 68 18 61 33 23 73 6 93 66 76 5 99 88 20 55 67 24 81 30 52 85 37 41 4 25 79 80 59 47 54 9 98 50 64 89 35 43 36 40 78 14 83 13 70 46 7 63 16 72 39 94 58 48 51 69 65 31 29 86 22 2 49 71 28 57 56 77 38 12 91 34 17 74 95 84 53 75 97 42 27 21 1 60 45 8 10 87 44 15 82 92 11 96 62 
